W=8;
H=3;

MAX_TIME=19;
MAX_TRACKS=13;

TARGET=(2,8);

TRAINS=[(2,2,LEFT),(2,3,RIGHT),(2,7,LEFT)];
DECOYS=[];

INIT_POS=[
(2,2,STRAIGHT_RL),
(2,3,STRAIGHT_RL),
(2,7,STRAIGHT_RL),
(2,8,STRAIGHT_RL),
];
TUNNEL_PAIRS=[];

GATES=[];
ACTIVATIONS=[];

DSWITCHES=[];

STATIONS=[];
